<number of tasks>
89
<number of stations>
25
<task times>
1 1
2 2
3 3
4 4
5 5
6 6
7 7
8 8
9 9
10 10
11 1
12 2
13 3
14 4
15 5
16 6
17 7
18 8
19 9
20 10
21 1
22 2
23 3
24 4
25 5
26 6
27 7
28 8
29 9
30 10
31 1
32 2
33 3
34 4
35 5
36 6
37 7
38 8
39 9
40 10
41 1
42 2
43 3
44 4
45 5
46 6
47 7
48 8
49 9
50 10
51 1
52 2
53 3
54 4
55 5
56 6
57 7
58 8
59 9
60 10
61 1
62 2
63 3
64 4
65 5
66 6
67 7
68 8
69 9
70 10
71 1
72 2
73 3
74 4
75 5
76 6
77 7
78 8
79 9
80 10
81 1
82 2
83 3
84 4
85 5
86 6
87 7
88 8
89 9
<precedence relations>
1,2
2,3
3,4
4,5
4,6
4,7
4,8
4,9
5,10
6,11
7,12
8,18
9,18
10,14
11,12
12,13
13,14
14,15
14,16
15,17
16,54
17,18
18,19
18,20
19,22
20,21
20,28
21,54
22,23
23,24
24,25
25,26
25,27
25,29
26,37
27,33
28,29
29,31
30,54
31,32
32,33
33,34
34,35
35,36
35,37
36,38
37,38
38,39
39,40
39,41
39,42
39,43
40,44
41,53
42,53
43,45
44,52
45,46
46,47
47,48
47,49
49,50
50,51
51,52
52,53
53,68
53,69
53,70
53,71
54,55
55,56
56,57
57,58
57,59
57,60
57,61
57,62
57,63
57,64
57,65
57,66
58,67
59,67
60,67
61,67
62,67
63,67
64,67
65,67
66,67
67,73
68,72
69,72
70,72
71,73
72,78
72,80
73,74
74,75
74,76
75,77
76,81
77,78
78,79
79,81
80,81
80,87
81,82
81,84
81,85
82,83
83,86
84,86
85,86
86,87
86,89
87,88
87,89
<end>